
(set-option :produce-models true)
(set-option :inline-size-limit 10000)

(declare-const var0 String)

(push 1)
(assert (str.in.re var0 (re.* (re.range "\x01" "\xff"))))
(assert (str.in.re var0 (re.++ (re.++ re.begin-anchor (re.++ (re.* ((_ re.capture 1) (re.union (re.union (re.++ (str.to.re "a") (re.++ (str.to.re "-") (str.to.re "z"))) (re.++ (str.to.re "A") (re.++ (str.to.re "-") (str.to.re "Z")))) (re.++ (str.to.re "0") (re.++ (str.to.re "-") (str.to.re "9")))))) (re.* (re.inter (re.diff (re.range "\x01" "\xff") (str.to.re "#")) (re.inter (re.diff (re.range "\x01" "\xff") (str.to.re "$")) (re.inter (re.diff (re.range "\x01" "\xff") (str.to.re "%")) (re.inter (re.diff (re.range "\x01" "\xff") (str.to.re "^")) (re.inter (re.diff (re.range "\x01" "\xff") (str.to.re "&")) (re.inter (re.diff (re.range "\x01" "\xff") (str.to.re "*")) (re.inter (re.diff (re.range "\x01" "\xff") (str.to.re "(")) (re.inter (re.diff (re.range "\x01" "\xff") (str.to.re ")")) (re.inter (re.diff (re.range "\x01" "\xff") (str.to.re "&")) (re.inter (re.diff (re.range "\x01" "\xff") (str.to.re "#")) (re.inter (re.diff (re.range "\x01" "\xff") (str.to.re "3")) (re.inter (re.diff (re.range "\x01" "\xff") (str.to.re "9")) (re.diff (re.range "\x01" "\xff") (str.to.re ";"))))))))))))))))) re.end-anchor)))	; match!==null
(assert (not (str.in.re ((_ str.extract 1) var0 (re.++ (re.++ re.begin-anchor (re.++ (re.* ((_ re.capture 1) (re.union (re.union (re.++ (str.to.re "a") (re.++ (str.to.re "-") (str.to.re "z"))) (re.++ (str.to.re "A") (re.++ (str.to.re "-") (str.to.re "Z")))) (re.++ (str.to.re "0") (re.++ (str.to.re "-") (str.to.re "9")))))) (re.* (re.inter (re.diff (re.range "\x01" "\xff") (str.to.re "#")) (re.inter (re.diff (re.range "\x01" "\xff") (str.to.re "$")) (re.inter (re.diff (re.range "\x01" "\xff") (str.to.re "%")) (re.inter (re.diff (re.range "\x01" "\xff") (str.to.re "^")) (re.inter (re.diff (re.range "\x01" "\xff") (str.to.re "&")) (re.inter (re.diff (re.range "\x01" "\xff") (str.to.re "*")) (re.inter (re.diff (re.range "\x01" "\xff") (str.to.re "(")) (re.inter (re.diff (re.range "\x01" "\xff") (str.to.re ")")) (re.inter (re.diff (re.range "\x01" "\xff") (str.to.re "&")) (re.inter (re.diff (re.range "\x01" "\xff") (str.to.re "#")) (re.inter (re.diff (re.range "\x01" "\xff") (str.to.re "3")) (re.inter (re.diff (re.range "\x01" "\xff") (str.to.re "9")) (re.diff (re.range "\x01" "\xff") (str.to.re ";"))))))))))))))))) re.end-anchor)) (str.to.re "\x00"))))
;match[1]!==null
(assert (str.in.re ((_ str.extract 1) var0 (re.++ (re.++ re.begin-anchor (re.++ (re.* ((_ re.capture 1) (re.union (re.union (re.++ (str.to.re "a") (re.++ (str.to.re "-") (str.to.re "z"))) (re.++ (str.to.re "A") (re.++ (str.to.re "-") (str.to.re "Z")))) (re.++ (str.to.re "0") (re.++ (str.to.re "-") (str.to.re "9")))))) (re.* (re.inter (re.diff (re.range "\x01" "\xff") (str.to.re "#")) (re.inter (re.diff (re.range "\x01" "\xff") (str.to.re "$")) (re.inter (re.diff (re.range "\x01" "\xff") (str.to.re "%")) (re.inter (re.diff (re.range "\x01" "\xff") (str.to.re "^")) (re.inter (re.diff (re.range "\x01" "\xff") (str.to.re "&")) (re.inter (re.diff (re.range "\x01" "\xff") (str.to.re "*")) (re.inter (re.diff (re.range "\x01" "\xff") (str.to.re "(")) (re.inter (re.diff (re.range "\x01" "\xff") (str.to.re ")")) (re.inter (re.diff (re.range "\x01" "\xff") (str.to.re "&")) (re.inter (re.diff (re.range "\x01" "\xff") (str.to.re "#")) (re.inter (re.diff (re.range "\x01" "\xff") (str.to.re "3")) (re.inter (re.diff (re.range "\x01" "\xff") (str.to.re "9")) (re.diff (re.range "\x01" "\xff") (str.to.re ";"))))))))))))))))) re.end-anchor)) (re.++ re.all(re.+ (re.range "a" "z")) re.all) ))
;/[a-z]+/.test(match[1]) == true
(check-sat)
(get-model)
(pop 1)
(push 1)
(assert (str.in.re var0 (re.* (re.range "\x01" "\xff"))))
(assert (str.in.re var0 (re.++ (re.++ re.begin-anchor (re.++ (re.* ((_ re.capture 1) (re.union (re.union (re.++ (str.to.re "a") (re.++ (str.to.re "-") (str.to.re "z"))) (re.++ (str.to.re "A") (re.++ (str.to.re "-") (str.to.re "Z")))) (re.++ (str.to.re "0") (re.++ (str.to.re "-") (str.to.re "9")))))) (re.* (re.inter (re.diff (re.range "\x01" "\xff") (str.to.re "#")) (re.inter (re.diff (re.range "\x01" "\xff") (str.to.re "$")) (re.inter (re.diff (re.range "\x01" "\xff") (str.to.re "%")) (re.inter (re.diff (re.range "\x01" "\xff") (str.to.re "^")) (re.inter (re.diff (re.range "\x01" "\xff") (str.to.re "&")) (re.inter (re.diff (re.range "\x01" "\xff") (str.to.re "*")) (re.inter (re.diff (re.range "\x01" "\xff") (str.to.re "(")) (re.inter (re.diff (re.range "\x01" "\xff") (str.to.re ")")) (re.inter (re.diff (re.range "\x01" "\xff") (str.to.re "&")) (re.inter (re.diff (re.range "\x01" "\xff") (str.to.re "#")) (re.inter (re.diff (re.range "\x01" "\xff") (str.to.re "3")) (re.inter (re.diff (re.range "\x01" "\xff") (str.to.re "9")) (re.diff (re.range "\x01" "\xff") (str.to.re ";"))))))))))))))))) re.end-anchor)))	; match!==null
(assert (not (str.in.re ((_ str.extract 1) var0 (re.++ (re.++ re.begin-anchor (re.++ (re.* ((_ re.capture 1) (re.union (re.union (re.++ (str.to.re "a") (re.++ (str.to.re "-") (str.to.re "z"))) (re.++ (str.to.re "A") (re.++ (str.to.re "-") (str.to.re "Z")))) (re.++ (str.to.re "0") (re.++ (str.to.re "-") (str.to.re "9")))))) (re.* (re.inter (re.diff (re.range "\x01" "\xff") (str.to.re "#")) (re.inter (re.diff (re.range "\x01" "\xff") (str.to.re "$")) (re.inter (re.diff (re.range "\x01" "\xff") (str.to.re "%")) (re.inter (re.diff (re.range "\x01" "\xff") (str.to.re "^")) (re.inter (re.diff (re.range "\x01" "\xff") (str.to.re "&")) (re.inter (re.diff (re.range "\x01" "\xff") (str.to.re "*")) (re.inter (re.diff (re.range "\x01" "\xff") (str.to.re "(")) (re.inter (re.diff (re.range "\x01" "\xff") (str.to.re ")")) (re.inter (re.diff (re.range "\x01" "\xff") (str.to.re "&")) (re.inter (re.diff (re.range "\x01" "\xff") (str.to.re "#")) (re.inter (re.diff (re.range "\x01" "\xff") (str.to.re "3")) (re.inter (re.diff (re.range "\x01" "\xff") (str.to.re "9")) (re.diff (re.range "\x01" "\xff") (str.to.re ";"))))))))))))))))) re.end-anchor)) (str.to.re "\x00"))))	
;match[1]!==null
(assert (not (str.in.re ((_ str.extract 1) var0 (re.++ (re.++ re.begin-anchor (re.++ (re.* ((_ re.capture 1) (re.union (re.union (re.++ (str.to.re "a") (re.++ (str.to.re "-") (str.to.re "z"))) (re.++ (str.to.re "A") (re.++ (str.to.re "-") (str.to.re "Z")))) (re.++ (str.to.re "0") (re.++ (str.to.re "-") (str.to.re "9")))))) (re.* (re.inter (re.diff (re.range "\x01" "\xff") (str.to.re "#")) (re.inter (re.diff (re.range "\x01" "\xff") (str.to.re "$")) (re.inter (re.diff (re.range "\x01" "\xff") (str.to.re "%")) (re.inter (re.diff (re.range "\x01" "\xff") (str.to.re "^")) (re.inter (re.diff (re.range "\x01" "\xff") (str.to.re "&")) (re.inter (re.diff (re.range "\x01" "\xff") (str.to.re "*")) (re.inter (re.diff (re.range "\x01" "\xff") (str.to.re "(")) (re.inter (re.diff (re.range "\x01" "\xff") (str.to.re ")")) (re.inter (re.diff (re.range "\x01" "\xff") (str.to.re "&")) (re.inter (re.diff (re.range "\x01" "\xff") (str.to.re "#")) (re.inter (re.diff (re.range "\x01" "\xff") (str.to.re "3")) (re.inter (re.diff (re.range "\x01" "\xff") (str.to.re "9")) (re.diff (re.range "\x01" "\xff") (str.to.re ";"))))))))))))))))) re.end-anchor)) (re.++ re.all(re.+ (re.range "a" "z")) re.all) )))
;/[a-z]+/.test(match[1]) == false	
(check-sat)
(get-model)
(pop 1)
(push 1)
(assert (str.in.re var0 (re.* (re.range "\x01" "\xff"))))
(assert (str.in.re var0 (re.++ (re.++ re.begin-anchor (re.++ (re.* ((_ re.capture 1) (re.union (re.union (re.++ (str.to.re "a") (re.++ (str.to.re "-") (str.to.re "z"))) (re.++ (str.to.re "A") (re.++ (str.to.re "-") (str.to.re "Z")))) (re.++ (str.to.re "0") (re.++ (str.to.re "-") (str.to.re "9")))))) (re.* (re.inter (re.diff (re.range "\x01" "\xff") (str.to.re "#")) (re.inter (re.diff (re.range "\x01" "\xff") (str.to.re "$")) (re.inter (re.diff (re.range "\x01" "\xff") (str.to.re "%")) (re.inter (re.diff (re.range "\x01" "\xff") (str.to.re "^")) (re.inter (re.diff (re.range "\x01" "\xff") (str.to.re "&")) (re.inter (re.diff (re.range "\x01" "\xff") (str.to.re "*")) (re.inter (re.diff (re.range "\x01" "\xff") (str.to.re "(")) (re.inter (re.diff (re.range "\x01" "\xff") (str.to.re ")")) (re.inter (re.diff (re.range "\x01" "\xff") (str.to.re "&")) (re.inter (re.diff (re.range "\x01" "\xff") (str.to.re "#")) (re.inter (re.diff (re.range "\x01" "\xff") (str.to.re "3")) (re.inter (re.diff (re.range "\x01" "\xff") (str.to.re "9")) (re.diff (re.range "\x01" "\xff") (str.to.re ";"))))))))))))))))) re.end-anchor)))	; match!==null
(assert (str.in.re ((_ str.extract 1) var0 (re.++ (re.++ re.begin-anchor (re.++ (re.* ((_ re.capture 1) (re.union (re.union (re.++ (str.to.re "a") (re.++ (str.to.re "-") (str.to.re "z"))) (re.++ (str.to.re "A") (re.++ (str.to.re "-") (str.to.re "Z")))) (re.++ (str.to.re "0") (re.++ (str.to.re "-") (str.to.re "9")))))) (re.* (re.inter (re.diff (re.range "\x01" "\xff") (str.to.re "#")) (re.inter (re.diff (re.range "\x01" "\xff") (str.to.re "$")) (re.inter (re.diff (re.range "\x01" "\xff") (str.to.re "%")) (re.inter (re.diff (re.range "\x01" "\xff") (str.to.re "^")) (re.inter (re.diff (re.range "\x01" "\xff") (str.to.re "&")) (re.inter (re.diff (re.range "\x01" "\xff") (str.to.re "*")) (re.inter (re.diff (re.range "\x01" "\xff") (str.to.re "(")) (re.inter (re.diff (re.range "\x01" "\xff") (str.to.re ")")) (re.inter (re.diff (re.range "\x01" "\xff") (str.to.re "&")) (re.inter (re.diff (re.range "\x01" "\xff") (str.to.re "#")) (re.inter (re.diff (re.range "\x01" "\xff") (str.to.re "3")) (re.inter (re.diff (re.range "\x01" "\xff") (str.to.re "9")) (re.diff (re.range "\x01" "\xff") (str.to.re ";"))))))))))))))))) re.end-anchor)) (str.to.re "\x00")))
;match[1]==null
(check-sat)
(get-model)
(pop 1)
(push 1)
(assert (str.in.re var0 (re.* (re.range "\x01" "\xff"))))
(assert (not (str.in.re var0 (re.++ (re.++ re.begin-anchor (re.++ (re.* ((_ re.capture 1) (re.union (re.union (re.++ (str.to.re "a") (re.++ (str.to.re "-") (str.to.re "z"))) (re.++ (str.to.re "A") (re.++ (str.to.re "-") (str.to.re "Z")))) (re.++ (str.to.re "0") (re.++ (str.to.re "-") (str.to.re "9")))))) (re.* (re.inter (re.diff (re.range "\x01" "\xff") (str.to.re "#")) (re.inter (re.diff (re.range "\x01" "\xff") (str.to.re "$")) (re.inter (re.diff (re.range "\x01" "\xff") (str.to.re "%")) (re.inter (re.diff (re.range "\x01" "\xff") (str.to.re "^")) (re.inter (re.diff (re.range "\x01" "\xff") (str.to.re "&")) (re.inter (re.diff (re.range "\x01" "\xff") (str.to.re "*")) (re.inter (re.diff (re.range "\x01" "\xff") (str.to.re "(")) (re.inter (re.diff (re.range "\x01" "\xff") (str.to.re ")")) (re.inter (re.diff (re.range "\x01" "\xff") (str.to.re "&")) (re.inter (re.diff (re.range "\x01" "\xff") (str.to.re "#")) (re.inter (re.diff (re.range "\x01" "\xff") (str.to.re "3")) (re.inter (re.diff (re.range "\x01" "\xff") (str.to.re "9")) (re.diff (re.range "\x01" "\xff") (str.to.re ";"))))))))))))))))) re.end-anchor))))	; match == null
(check-sat)
(get-model)
(pop 1)
(exit)
